NAME : in_house_7_17
TYPE : TSP
DIMENSION : 7
EDGE_WEIGHT_TYPE : EXPLICIT
EDGE_WEIGHT_FORMAT : UPPER_ROW
COMMENT : INVERSION_SHIFT=2
EDGE_WEIGHT_SECTION
40
17
11
38
25
29
48
8
3
10
31
4
37
30
22
38
22
20
29
8
2
